c description: Random 3-CNF over 17 variables and 72 clauses
c generator: CNFgen (0.9.2)
c copyright: (C) 2012-2022 Massimo Lauria <massimo.lauria@uniroma1.it>
c url: https://massimolauria.net/cnfgen
c command line: cnfgen --output CNF_4.28/17_bit_72_995.cnf randkcnf 3 17 72
c
p cnf 17 72
-4 -7 -16 0
-2 4 8 0
-4 8 15 0
-5 13 14 0
1 4 10 0
-8 13 15 0
3 -8 -14 0
5 14 15 0
-5 8 -15 0
-3 -10 -11 0
1 -4 16 0
5 12 -15 0
2 -12 -13 0
2 -12 -15 0
-7 12 -14 0
4 -8 15 0
-5 10 -14 0
4 -12 -15 0
7 -10 17 0
-4 10 -11 0
-9 10 -15 0
3 -7 9 0
8 9 11 0
-7 8 -12 0
-3 6 -16 0
8 9 10 0
-2 12 16 0
-5 15 -16 0
3 5 16 0
-2 -8 17 0
3 -12 15 0
6 -15 -17 0
-1 -2 7 0
-8 12 13 0
-2 3 5 0
-8 -11 -12 0
7 -9 -16 0
-1 5 17 0
4 5 6 0
1 2 -16 0
-9 -10 -14 0
-11 -12 16 0
7 -8 15 0
1 2 16 0
-11 12 15 0
1 -4 -9 0
-9 -12 -17 0
1 -4 -5 0
-1 4 9 0
-4 -9 15 0
5 -6 12 0
3 -5 7 0
5 6 14 0
7 14 -15 0
-6 8 9 0
1 3 -7 0
2 5 -14 0
-6 -12 17 0
-10 -12 13 0
-12 14 -15 0
8 9 17 0
5 -10 11 0
8 -10 -13 0
-2 14 -15 0
6 -11 -13 0
-3 13 -15 0
1 4 11 0
6 -7 -16 0
5 -7 13 0
1 4 -11 0
-3 -7 -11 0
1 5 7 0
